min: c;

c = 3.83559998401299 * u4_t1_h1 + 3.76019218528623 * u4_t1_h2 + 2.92149744174007 * u4_t1_h3 + 3.37579931041322 * u4_t1_h4 + 3.37579931041322 * u4_t10_h4 + 3.90980868865498 * u4_t1_h5 + 3.90980868865498 * u4_t10_h5 + 4.21921017220843 * u4_t1_h6 + 4.21921017220843 * u4_t10_h6 + 3.71888973823202 * u4_t1_h7 + 3.71888973823202 * u4_t10_h7 + 5.55683668047545 * u4_t1_h8 + 5.55683668047545 * u4_t9_h8 + 5.55683668047545 * u4_t10_h8 + 5.41908433499113 * u4_t9_h9 + 5.41908433499113 * u4_t10_h9 + 5.15172332174105 * u4_t9_h10 + 5.15172332174105 * u4_t10_h10 + 3.48955240614058 * u4_t2_h11 + 3.48955240614058 * u4_t4_h11 + 3.48955240614058 * u4_t9_h11 + 3.48955240614058 * u4_t10_h11 + 5.95075516621108 * u4_t2_h12 + 5.95075516621108 * u4_t3_h12 + 5.95075516621108 * u4_t4_h12 + 5.95075516621108 * u4_t8_h12 + 5.95075516621108 * u4_t9_h12 + 5.95075516621108 * u4_t10_h12 + 4.83252396257116 * u4_t2_h13 + 4.83252396257116 * u4_t3_h13 + 4.83252396257116 * u4_t4_h13 + 4.83252396257116 * u4_t8_h13 + 4.83252396257116 * u4_t9_h13 + 5.23838138964465 * u4_t2_h14 + 5.23838138964465 * u4_t3_h14 + 5.23838138964465 * u4_t4_h14 + 5.23838138964465 * u4_t8_h14 + 5.23838138964465 * u4_t9_h14 + 5.92721682878892 * u4_t2_h15 + 5.92721682878892 * u4_t3_h15 + 5.92721682878892 * u4_t4_h15 + 5.92721682878892 * u4_t8_h15 + 5.92721682878892 * u4_t9_h15 + 5.39805471403348 * u4_t2_h16 + 5.39805471403348 * u4_t3_h16 + 5.39805471403348 * u4_t4_h16 + 5.39805471403348 * u4_t5_h16 + 5.39805471403348 * u4_t8_h16 + 5.39805471403348 * u4_t9_h16 + 6.66347694016676 * u4_t2_h17 + 6.66347694016676 * u4_t3_h17 + 6.66347694016676 * u4_t5_h17 + 6.66347694016676 * u4_t8_h17 + 6.66347694016676 * u4_t9_h17 + 6.06929245989174 * u4_t2_h18 + 6.06929245989174 * u4_t3_h18 + 6.06929245989174 * u4_t5_h18 + 6.06929245989174 * u4_t8_h18 + 6.06929245989174 * u4_t9_h18 + 5.61681122482991 * u4_t2_h19 + 5.61681122482991 * u4_t3_h19 + 5.61681122482991 * u4_t6_h19 + 5.61681122482991 * u4_t8_h19 + 5.61681122482991 * u4_t9_h19 + 5.85714423642274 * u4_t2_h20 + 5.85714423642274 * u4_t6_h20 + 5.85714423642274 * u4_t9_h20 + 5.34619491856112 * u4_t6_h21 + 5.65352267332662 * u4_t6_h22 + 5.65352267332662 * u4_t7_h22 + 5.11311264895507 * u4_t6_h23 + 5.11311264895507 * u4_t7_h23;
0 <= u4_t1_h1 <= 1;
0 <= u4_t1_h2 <= 1;
0 <= u4_t1_h3 <= 1;
0 <= u4_t1_h4 <= 1;
0 <= u4_t1_h5 <= 1;
0 <= u4_t1_h6 <= 1;
0 <= u4_t1_h7 <= 1;
0 <= u4_t1_h8 <= 1;
u4_t1_h1 + u4_t1_h2 + u4_t1_h3 + u4_t1_h4 + u4_t1_h5 + u4_t1_h6 + u4_t1_h7 + u4_t1_h8 = 1;
0 <= u4_t2_h11 <= 1;
0 <= u4_t2_h12 <= 1;
0 <= u4_t2_h13 <= 1;
0 <= u4_t2_h14 <= 1;
0 <= u4_t2_h15 <= 1;
0 <= u4_t2_h16 <= 1;
0 <= u4_t2_h17 <= 1;
0 <= u4_t2_h18 <= 1;
0 <= u4_t2_h19 <= 1;
0 <= u4_t2_h20 <= 1;
u4_t2_h11 + u4_t2_h12 + u4_t2_h13 + u4_t2_h14 + u4_t2_h15 + u4_t2_h16 + u4_t2_h17 + u4_t2_h18 + u4_t2_h19 + u4_t2_h20 = 2;
0 <= u4_t3_h12 <= 1;
0 <= u4_t3_h13 <= 1;
0 <= u4_t3_h14 <= 1;
0 <= u4_t3_h15 <= 1;
0 <= u4_t3_h16 <= 1;
0 <= u4_t3_h17 <= 1;
0 <= u4_t3_h18 <= 1;
0 <= u4_t3_h19 <= 1;
u4_t3_h12 + u4_t3_h13 + u4_t3_h14 + u4_t3_h15 + u4_t3_h16 + u4_t3_h17 + u4_t3_h18 + u4_t3_h19 = 3;
0 <= u4_t4_h11 <= 1;
0 <= u4_t4_h12 <= 1;
0 <= u4_t4_h13 <= 1;
0 <= u4_t4_h14 <= 1;
0 <= u4_t4_h15 <= 1;
0 <= u4_t4_h16 <= 1;
u4_t4_h11 + u4_t4_h12 + u4_t4_h13 + u4_t4_h14 + u4_t4_h15 + u4_t4_h16 = 3;
0 <= u4_t5_h16 <= 1;
0 <= u4_t5_h17 <= 1;
0 <= u4_t5_h18 <= 1;
u4_t5_h16 + u4_t5_h17 + u4_t5_h18 = 1;
0 <= u4_t6_h19 <= 1;
0 <= u4_t6_h20 <= 1;
0 <= u4_t6_h21 <= 1;
0 <= u4_t6_h22 <= 1;
0 <= u4_t6_h23 <= 1;
u4_t6_h19 + u4_t6_h20 + u4_t6_h21 + u4_t6_h22 + u4_t6_h23 = 3;
0 <= u4_t7_h22 <= 1;
0 <= u4_t7_h23 <= 1;
u4_t7_h22 + u4_t7_h23 = 1;
0 <= u4_t8_h12 <= 1;
0 <= u4_t8_h13 <= 1;
0 <= u4_t8_h14 <= 1;
0 <= u4_t8_h15 <= 1;
0 <= u4_t8_h16 <= 1;
0 <= u4_t8_h17 <= 1;
0 <= u4_t8_h18 <= 1;
0 <= u4_t8_h19 <= 1;
u4_t8_h12 + u4_t8_h13 + u4_t8_h14 + u4_t8_h15 + u4_t8_h16 + u4_t8_h17 + u4_t8_h18 + u4_t8_h19 = 2;
0 <= u4_t9_h8 <= 1;
0 <= u4_t9_h9 <= 1;
0 <= u4_t9_h10 <= 1;
0 <= u4_t9_h11 <= 1;
0 <= u4_t9_h12 <= 1;
0 <= u4_t9_h13 <= 1;
0 <= u4_t9_h14 <= 1;
0 <= u4_t9_h15 <= 1;
0 <= u4_t9_h16 <= 1;
0 <= u4_t9_h17 <= 1;
0 <= u4_t9_h18 <= 1;
0 <= u4_t9_h19 <= 1;
0 <= u4_t9_h20 <= 1;
u4_t9_h8 + u4_t9_h9 + u4_t9_h10 + u4_t9_h11 + u4_t9_h12 + u4_t9_h13 + u4_t9_h14 + u4_t9_h15 + u4_t9_h16 + u4_t9_h17 + u4_t9_h18 + u4_t9_h19 + u4_t9_h20 = 2;
0 <= u4_t10_h4 <= 1;
0 <= u4_t10_h5 <= 1;
0 <= u4_t10_h6 <= 1;
0 <= u4_t10_h7 <= 1;
0 <= u4_t10_h8 <= 1;
0 <= u4_t10_h9 <= 1;
0 <= u4_t10_h10 <= 1;
0 <= u4_t10_h11 <= 1;
0 <= u4_t10_h12 <= 1;
u4_t10_h4 + u4_t10_h5 + u4_t10_h6 + u4_t10_h7 + u4_t10_h8 + u4_t10_h9 + u4_t10_h10 + u4_t10_h11 + u4_t10_h12 = 2;
